000 000 000 000 000 000 001 002 001 000 000 000 000 000 000 000 001 001 001 002 001 001 001 000 000 002 000 001 000 -99 -99
000 000 000 000 000 000 001 002 000 000 000 000 000 000 000 000 001 001 002 001 001 001 000 000 000 001 000 001 000 -99 -99
000 000 000 000 000 000 000 001 000 000 000 000 000 000 000 000 001 001 002 001 002 001 000 000 000 000 000 000 000 -99 -99
000 000 000 000 000 000 000 001 000 000 000 000 000 000 000 000 000 001 000 001 000 000 000 000 000 000 000 000 000 -99 -99
000 000 000 000 000 000 000 000 000 000 000 000 000 000 000 000 000 000 000 001 000 000 000 000 000 -99 -99 -99 -99 -99 -99
000 000 000 000 000 000 000 000 000 000 000 000 000 000 000 000 000 000 000 000 000 000 000 000 000 -99 -99 -99 -99 -99 -99
000 000 000 000 000 000 000 000 000 000 000 000 000 000 000 000 000 000 000 000 000 000 000 000 000 -99 -99 -99 -99 -99 -99
000 000 000 000 000 000 000 000 000 000 000 000 000 000 000 000 000 000 000 000 000 000 000 000 000 -99 -99 -99 -99 -99 -99
000 000 000 000 000 000 000 000 000 000 000 000 000 000 000 000 000 000 000 000 000 -99 -99 000 000 -99 -99 -99 -99 -99 -99
000 000 000 000 000 000 000 000 000 000 000 000 000 000 000 000 000 000 000 000 000 000 000 -99 000 000 000 000 -99 -99 -99
000 000 000 000 000 001 000 000 000 000 000 000 000 000 000 000 000 000 000 000 000 000 000 -99 000 000 000 000 -99 -99 -99
000 000 000 000 000 001 001 001 001 001 001 000 000 000 000 000 000 000 000 000 000 000 -99 000 000 000 -99 000 000 -99 -99
000 000 001 001 001 001 001 001 001 001 000 000 000 000 000 000 000 000 000 000 000 000 -99 -99 000 000 000 000 000 000 -99
000 000 001 001 001 001 001 001 001 001 000 000 000 000 000 000 000 000 000 000 000 000 000 -99 000 000 000 000 000 000 -99
000 000 001 001 001 001 000 000 000 000 000 000 000 000 000 000 000 000 000 000 -99 -99 000 -99 000 000 000 000 000 000 -99
000 000 000 001 001 001 000 000 000 000 000 000 000 000 000 000 000 000 000 000 -99 -99 -99 -99 000 000 000 -99 000 000 -99
000 000 000 001 000 000 000 000 000 000 000 000 000 000 000 000 000 000 000 -99 -99 -99 000 -99 000 000 000 -99 000 000 -99
000 000 000 000 000 000 000 000 000 000 000 000 000 000 000 000 000 000 000 000 000 000 000 -99 000 -99 -99 -99 -99 000 -99
000 000 000 000 000 000 000 000 000 000 000 000 -99 000 000 000 000 000 000 000 000 000 000 000 000 -99 000 -99 -99 000 000
000 000 000 000 000 000 -99 000 000 000 000 000 -99 000 000 000 000 000 000 000 000 000 000 -99 -99 -99 -99 -99 -99 000 000
000 000 000 000 000 000 -99 000 000 000 000 -99 -99 000 000 000 000 000 000 000 000 000 000 -99 -99 -99 -99 -99 -99 -99 -99
000 000 000 000 000 000 000 000 000 000 -99 -99 -99 000 000 000 000 000 000 000 000 000 000 -99 -99 -99 -99 -99 -99 -99 -99
000 000 000 000 000 000 000 000 000 000 -99 -99 -99 000 000 000 000 000 000 000 000 000 000 -99 -99 -99 -99 -99 -99 -99 -99
000 000 000 000 000 000 000 000 000 000 -99 -99 000 000 -99 000 000 000 000 000 000 000 000 -99 -99 -99 -99 -99 -99 -99 -99
000 000 000 000 000 000 000 000 000 000 000 -99 000 000 000 000 000 000 000 000 000 000 000 -99 -99 -99 -99 -99 -99 -99 -99
000 000 000 000 000 000 000 000 000 000 -99 -99 000 000 000 000 000 000 000 000 000 000 -99 -99 -99 -99 -99 -99 -99 -99 000
000 000 000 000 000 000 000 000 000 000 -99 -99 -99 000 000 000 000 000 000 000 000 000 000 -99 -99 -99 -99 -99 -99 -99 000
000 000 000 000 000 000 000 000 000 000 -99 -99 000 000 000 000 000 000 000 000 000 000 000 -99 -99 -99 -99 -99 -99 -99 000
000 000 000 000 000 000 000 000 000 000 -99 -99 000 000 000 000 000 000 000 000 000 000 -99 -99 -99 -99 -99 -99 -99 -99 000
000 000 000 000 000 000 000 000 000 000 -99 -99 -99 000 000 000 000 000 000 000 000 000 -99 -99 -99 -99 -99 -99 -99 -99 000
000 000 000 000 000 000 000 000 000 000 000 -99 -99 000 000 -99 -99 -99 000 000 000 -99 -99 000 000 -99 -99 -99 -99 -99 000
000 000 000 000 000 000 001 000 000 000 -99 -99 -99 000 000 -99 000 000 000 -99 -99 000 000 000 000 -99 -99 -99 -99 -99 000
000 000 000 000 000 000 001 000 000 000 -99 -99 -99 000 -99 -99 000 000 000 000 -99 -99 000 000 000 -99 -99 000 -99 -99 000
000 000 000 000 000 000 000 000 000 000 -99 -99 -99 000 000 000 000 000 000 000 000 000 000 000 000 000 000 000 000 000 000
000 000 000 000 000 000 000 000 000 000 -99 -99 -99 000 000 000 000 000 000 000 000 000 000 000 000 000 000 000 000 000 000
000 000 000 000 000 000 000 000 000 000 -99 -99 000 000 000 000 000 000 000 000 000 000 000 000 000 000 002 004 001 000 000
000 000 000 000 000 000 000 000 000 000 -99 -99 000 000 -99 000 000 000 000 000 000 000 000 000 000 001 006 013 005 000 -99
000 000 000 000 000 000 -99 000 000 000 -99 -99 -99 -99 000 000 000 000 000 000 000 000 000 000 000 004 023 018 007 000 -99
000 000 000 000 000 -99 000 000 -99 000 -99 -99 000 000 000 000 000 000 -99 000 000 000 000 000 000 004 029 033 021 000 000
000 001 000 000 000 000 -99 -99 -99 -99 000 000 000 000 000 000 000 000 -99 -99 000 000 000 000 000 003 006 011 011 001 000
000 001 002 001 000 000 -99 -99 -99 -99 000 000 000 000 000 000 -99 -99 -99 000 000 -99 000 000 000 001 003 007 006 001 000
000 001 002 001 000 000 -99 -99 -99 000 000 000 000 000 000 000 000 000 000 000 000 -99 000 000 000 000 001 009 013 004 004
000 001 001 000 000 000 -99 -99 -99 000 000 000 000 000 000 000 000 000 000 000 000 -99 -99 000 000 001 006 018 035 015 032
000 001 000 000 000 000 -99 -99 -99 000 000 000 000 000 000 000 000 000 000 000 000 -99 000 000 000 005 028 061 051 018 043
001 000 001 000 000 000 -99 -99 -99 -99 000 000 000 000 000 002 000 000 001 000 000 000 000 000 003 020 030 071 041 023 054
000 001 000 000 000 -99 -99 -99 -99 -99 000 000 000 000 002 002 000 000 001 000 000 000 001 002 009 039 065 094 035 052 072
000 000 000 000 000 000 -99 -99 -99 -99 000 000 000 000 003 003 001 000 001 000 000 000 004 006 021 071 114 100 083 087 055
001 001 000 000 000 000 -99 -99 -99 000 000 000 000 000 004 006 001 002 003 001 001 004 014 030 057 066 091 102 094 090 035
001 002 000 000 000 000 000 000 -99 000 000 000 000 003 020 014 004 012 008 002 004 007 013 013 025 069 111 121 096 033 003
003 002 001 000 000 000 000 000 000 000 000 000 000 007 022 024 015 034 007 002 003 013 009 006 015 031 089 131 109 022 001
002 001 001 001 002 001 000 000 000 001 000 000 001 017 031 016 022 027 021 011 010 003 002 007 022 018 035 031 050 005 000
003 003 004 003 003 001 000 001 002 001 001 000 001 009 012 013 028 024 021 025 010 002 002 008 007 010 021 006 003 001 -99
002 006 006 006 004 002 001 004 001 000 000 001 001 005 004 013 010 030 034 013 003 000 001 003 002 006 002 003 002 001 -99
002 003 005 008 004 002 002 001 000 000 000 000 001 001 006 004 004 007 012 004 000 000 001 002 001 000 001 003 -99 -99 -99
002 003 003 003 003 002 001 001 001 000 000 000 001 001 002 001 000 001 001 000 000 -99 002 001 000 000 000 -99 -99 -99 -99
